c turning on binary mode checking
c parsing input formula with 259840 variables and 1039934 clauses
c finished parsing, read 24300873 bytes from proof file
c detected empty clause; start verification via backward checking
c 12664 of 1039934 clauses in core                            
c 16612 of 626292 lemmas in core using 117625 resolution steps
c 0 RAT lemmas in core; 1139 redundant literals in core lemmas
s VERIFIED
c verification time: 2.872 seconds
